(set-logic QF_S)
(declare-fun T_4 () Bool)
(declare-fun T_SELECT_1 () Bool)
(declare-fun PCTEMP_LHS_2 () Int)
(declare-fun T0_6 () String)
(declare-fun T1_6 () String)
(declare-fun T_2 () String)
(assert (= T_2 (str.++ T0_6 T1_6)))
(assert (not (str.in.re T1_6 (str.to.re "//"))))
(assert T_4)
(assert (= T_4 (= PCTEMP_LHS_2 0)))
(assert (= PCTEMP_LHS_2 (- 1)))
(assert (= T_SELECT_1 (not (= PCTEMP_LHS_2 (- 1)))))
(assert (= 0 (str.len T0_6))) ; len 0
(assert (not T_SELECT_1))
(check-sat)
